RT is False
Default write of storage_offers_DA.csv just to have a file (but constraint should be inactive)
Reading model...
...model read.
creating competitive generators file...
...competitive generators recorded.
Loading data...
.. day-ahead data with real-time VRE data read.
Compiling instance...
...instance created.
Creating Offer Mitigation (model will solve as dispatch if TRUE)...
Solving...

Welcome to IBM(R) ILOG(R) CPLEX(R) Interactive Optimizer 12.9.0.0
  with Simplex, Mixed Integer & Barrier Optimizers
5725-A06 5725-A29 5724-Y48 5724-Y49 5724-Y54 5724-Y55 5655-Y21
Copyright IBM Corp. 1988, 2019.  All Rights Reserved.

Type 'help' for a list of available commands.
Type 'help' followed by a command name for more
information on commands.

CPLEX> Logfile 'cplex.log' closed.
Logfile 'C:\Users\llavin\Desktop\test919\logs\tmpdb5jua__.cplex.log' open.
CPLEX> New value for parallel optimization mode: -1
CPLEX> New value for mixed integer optimality gap tolerance: 0.01
CPLEX> New value for integrality tolerance: 1e-09
CPLEX> New value for feasibility tolerance: 0.01
CPLEX> New value for deterministic time limit in ticks: 75000
CPLEX> Problem 'C:\Users\llavin\Desktop\test919\logs\tmp_y5ke2ny.pyomo.lp' read.
Read time = 0.05 sec. (3.04 ticks)
CPLEX> Problem name         : C:\Users\llavin\Desktop\test919\logs\tmp_y5ke2ny.pyomo.lp
Objective sense      : Minimize
Variables            :   26081  [Nneg: 1,  Box: 21616,  Free: 4464]
Objective nonzeros   :    2496
Linear constraints   :   27515  [Less: 14006,  Greater: 4416,  Equal: 9093]
  Nonzeros           :   89267
  RHS nonzeros       :   12271

Variables            : Min LB: -5000.000        Max UB: 1000000.       
Objective nonzeros   : Min   : 15.73158         Max   : 124.0997       
Linear constraints   :
  Nonzeros           : Min   : 0.8500000        Max   : 3000.000       
  RHS nonzeros       : Min   : 0.2250000        Max   : 5000.000       
CPLEX> CPXPARAM_Parallel                                -1
CPXPARAM_Simplex_Tolerances_Feasibility          0.01
CPXPARAM_DetTimeLimit                            75000
CPXPARAM_MIP_Tolerances_MIPGap                   0.01
CPXPARAM_MIP_Tolerances_Integrality              1.0000000000000001e-09
Parallel mode: opportunistic, using up to 32 threads for concurrent optimization.
Tried aggregator 1 time.
LP Presolve eliminated 21353 rows and 15463 columns.
Aggregator did 773 substitutions.
Reduced LP has 5389 rows, 9845 columns, and 31806 nonzeros.
Presolve time = 0.05 sec. (30.45 ticks)
Symmetry aggregator did 5563 additional substitutions.

Iteration log . . .
Iteration:     1   Dual objective     =             0.000000
Perturbation started.
Iteration:   101   Dual objective     =             0.000000
Iteration:   335   Dual objective     =             1.229895
Iteration:   593   Dual objective     =             1.753815
Iteration:   851   Dual objective     =             1.888614
Iteration:  1063   Dual objective     =             2.002124
Iteration:  1330   Dual objective     =             2.048710
Iteration:  1576   Dual objective     =             2.079498
Iteration:  1797   Dual objective     =        103290.246872
Iteration:  1988   Dual objective     =        301780.309676
Iteration:  2172   Dual objective     =        340366.683186
Iteration:  2372   Dual objective     =        350582.837789
Iteration:  2650   Dual objective     =        351055.541330
Iteration:  3077   Dual objective     =        351111.037689
Removing perturbation.

Dual crossover.
  Dual:  Fixing 13 variables.
Using devex.

Primal simplex solved model.


Primal simplex - Optimal:  Objective =  3.5110887428e+05
Solution time =    0.17 sec.  Iterations = 1753 (1075)
Deterministic time = 84.10 ticks  (488.97 ticks/sec)

CPLEX> Solution written to file 'C:\Users\llavin\Desktop\test919\logs\tmpk_eb_x5m.cplex.sol'.
CPLEX> Exporting results... 
...storage offer mitigation file created
Converting model to MPEC...
...converted
NOTE: initial MIP solve with only storage competitive to get feasible solution
Solving...

Welcome to IBM(R) ILOG(R) CPLEX(R) Interactive Optimizer 12.9.0.0
  with Simplex, Mixed Integer & Barrier Optimizers
5725-A06 5725-A29 5724-Y48 5724-Y49 5724-Y54 5724-Y55 5655-Y21
Copyright IBM Corp. 1988, 2019.  All Rights Reserved.

Type 'help' for a list of available commands.
Type 'help' followed by a command name for more
information on commands.

CPLEX> Logfile 'cplex.log' closed.
Logfile 'C:\Users\llavin\Desktop\test919\logs\tmpd82lt01b.cplex.log' open.
CPLEX> New value for parallel optimization mode: -1
CPLEX> New value for mixed integer optimality gap tolerance: 0.01
CPLEX> New value for integrality tolerance: 1e-09
CPLEX> New value for feasibility tolerance: 0.01
CPLEX> New value for deterministic time limit in ticks: 75000
CPLEX> Problem 'C:\Users\llavin\Desktop\test919\logs\tmp_l2hm4y2.pyomo.lp' read.
Read time = 0.23 sec. (14.78 ticks)
CPLEX> Problem name         : C:\Users\llavin\Desktop\test919\logs\tmp_l2hm4y2.pyomo.lp
Objective sense      : Maximize
Variables            :   53805  [Nneg: 1,  Box: 22000,  Free: 4464,
                                 Binary: 27340]
Objective nonzeros   :    8980
Linear constraints   :  123205  [Less: 41346,  Greater: 59096,  Equal: 22763]
  Nonzeros           :  291801
  RHS nonzeros       :   67453

Variables            : Min LB: -5000.000        Max UB: 1000000.       
Objective nonzeros   : Min   : 0.2250000        Max   : 725.5083       
Linear constraints   :
  Nonzeros           : Min   : 0.2250000        Max   : 1000000.       
  RHS nonzeros       : Min   : 0.2250000        Max   : 1000000.       
CPLEX> CPXPARAM_Parallel                                -1
CPXPARAM_Simplex_Tolerances_Feasibility          0.01
CPXPARAM_DetTimeLimit                            75000
CPXPARAM_MIP_Tolerances_MIPGap                   0.01
CPXPARAM_MIP_Tolerances_Integrality              1.0000000000000001e-09
Tried aggregator 3 times.
MIP Presolve eliminated 88637 rows and 18937 columns.
MIP Presolve added 3373 rows and 0 columns.
MIP Presolve modified 24861 coefficients.
Aggregator did 12981 substitutions.
Reduced MIP has 24960 rows, 21331 columns, and 71207 nonzeros.
Reduced MIP has 8411 binaries, 0 generals, 0 SOSs, and 0 indicators.
Presolve time = 0.28 sec. (173.68 ticks)
Probing fixed 389 vars, tightened 2842 bounds.
Probing time = 1.20 sec. (881.80 ticks)
Tried aggregator 2 times.
MIP Presolve eliminated 880 rows and 781 columns.
MIP Presolve modified 2192 coefficients.
Aggregator did 35 substitutions.
Reduced MIP has 24045 rows, 20515 columns, and 68556 nonzeros.
Reduced MIP has 8021 binaries, 0 generals, 0 SOSs, and 0 indicators.
Presolve time = 0.11 sec. (68.37 ticks)
Probing time = 0.05 sec. (16.31 ticks)
Clique table members: 6482.
MIP emphasis: balance optimality and feasibility.
MIP search method: dynamic search.
Parallel mode: opportunistic, using up to 32 threads.
Root relaxation solution time = 0.34 sec. (269.02 ticks)

        Nodes                                         Cuts/
   Node  Left     Objective  IInf  Best Integer    Best Bound    ItCnt     Gap

      0     0     8053.5424  1706                   8053.5424     6416         
*     0+    0                         8053.5424     8053.5424             0.00%
      0     0        cutoff           8053.5424     8053.5424     6416    0.00%
Elapsed time = 6.48 sec. (4474.99 ticks, tree = 0.01 MB, solutions = 1)

Root node processing (before b&c):
  Real time             =    6.50 sec. (4476.93 ticks)
Parallel b&c, 32 threads:
  Real time             =    0.00 sec. (0.00 ticks)
  Sync time (average)   =    0.00 sec.
  Wait time (average)   =    0.00 sec.
                          ------------
Total (root+branch&cut) =    6.50 sec. (4476.93 ticks)

Solution pool: 1 solution saved.

MIP - Integer optimal solution:  Objective =  8.0535423960e+03
Solution time =    6.52 sec.  Iterations = 6416  Nodes = 0
Deterministic time = 4477.09 ticks  (687.20 ticks/sec)

CPLEX> Incumbent solution written to file 'C:\Users\llavin\Desktop\test919\logs\tmpas86476b.cplex.sol'.
CPLEX> NOTE: no warmstart specified for MIP iteration, default behavior is true
NOTE: resolving with all competitive generators using storage-only solution to warmstart
Solving...

Welcome to IBM(R) ILOG(R) CPLEX(R) Interactive Optimizer 12.9.0.0
  with Simplex, Mixed Integer & Barrier Optimizers
5725-A06 5725-A29 5724-Y48 5724-Y49 5724-Y54 5724-Y55 5655-Y21
Copyright IBM Corp. 1988, 2019.  All Rights Reserved.

Type 'help' for a list of available commands.
Type 'help' followed by a command name for more
information on commands.

CPLEX> Logfile 'cplex.log' closed.
Logfile 'C:\Users\llavin\Desktop\test919\logs\tmpkshme3c9.cplex.log' open.
CPLEX> New value for parallel optimization mode: -1
CPLEX> New value for mixed integer optimality gap tolerance: 0.01
CPLEX> New value for integrality tolerance: 1e-09
CPLEX> New value for feasibility tolerance: 0.01
CPLEX> New value for deterministic time limit in ticks: 75000
CPLEX> Problem 'C:\Users\llavin\Desktop\test919\logs\tmpb32px8va.pyomo.lp' read.
Read time = 0.23 sec. (14.81 ticks)
CPLEX> MIP start file 'C:\Users\llavin\Desktop\test919\logs\tmp642k2zeg.cplex.mst' read.
CPLEX> Problem name         : C:\Users\llavin\Desktop\test919\logs\tmpb32px8va.pyomo.lp
Objective sense      : Maximize
Variables            :   54525  [Nneg: 1,  Box: 22720,  Free: 4464,
                                 Binary: 27340]
Objective nonzeros   :    9700
Linear constraints   :  123205  [Less: 41346,  Greater: 59096,  Equal: 22763]
  Nonzeros           :  291801
  RHS nonzeros       :   67453

Variables            : Min LB: -5000.000        Max UB: 1000000.       
Objective nonzeros   : Min   : 0.2250000        Max   : 725.5083       
Linear constraints   :
  Nonzeros           : Min   : 0.2250000        Max   : 1000000.       
  RHS nonzeros       : Min   : 0.2250000        Max   : 1000000.       
CPLEX> CPXPARAM_Parallel                                -1
CPXPARAM_Simplex_Tolerances_Feasibility          0.01
CPXPARAM_DetTimeLimit                            75000
CPXPARAM_MIP_Tolerances_MIPGap                   0.01
CPXPARAM_MIP_Tolerances_Integrality              1.0000000000000001e-09
Warning:  No solution found from 1 MIP starts.
Retaining values of one MIP start for possible repair.
Tried aggregator 3 times.
MIP Presolve eliminated 88637 rows and 19657 columns.
MIP Presolve added 3373 rows and 0 columns.
MIP Presolve modified 24861 coefficients.
Aggregator did 12981 substitutions.
Reduced MIP has 24960 rows, 21331 columns, and 71207 nonzeros.
Reduced MIP has 8411 binaries, 0 generals, 0 SOSs, and 0 indicators.
Presolve time = 0.28 sec. (174.04 ticks)
Probing fixed 389 vars, tightened 2842 bounds.
Probing time = 1.20 sec. (881.80 ticks)
Tried aggregator 2 times.
MIP Presolve eliminated 880 rows and 781 columns.
MIP Presolve modified 2192 coefficients.
Aggregator did 35 substitutions.
Reduced MIP has 24045 rows, 20515 columns, and 68556 nonzeros.
Reduced MIP has 8021 binaries, 0 generals, 0 SOSs, and 0 indicators.
Presolve time = 0.11 sec. (68.37 ticks)
Probing time = 0.05 sec. (16.31 ticks)
Clique table members: 6482.
MIP emphasis: balance optimality and feasibility.
MIP search method: dynamic search.
Parallel mode: opportunistic, using up to 32 threads.
Root relaxation solution time = 0.34 sec. (269.02 ticks)

        Nodes                                         Cuts/
   Node  Left     Objective  IInf  Best Integer    Best Bound    ItCnt     Gap

      0     0     8053.5424  1706                   8053.5424     6416         
*     0+    0                         8053.5424     8053.5424             0.00%
      0     0        cutoff           8053.5424     8053.5424     6416    0.00%
Elapsed time = 6.72 sec. (4521.38 ticks, tree = 0.01 MB, solutions = 1)

Root node processing (before b&c):
  Real time             =    6.72 sec. (4523.34 ticks)
Parallel b&c, 32 threads:
  Real time             =    0.00 sec. (0.00 ticks)
  Sync time (average)   =    0.00 sec.
  Wait time (average)   =    0.00 sec.
                          ------------
Total (root+branch&cut) =    6.72 sec. (4523.34 ticks)

Solution pool: 1 solution saved.

MIP - Integer optimal solution:  Objective =  8.0535423960e+03
Solution time =    6.77 sec.  Iterations = 6416  Nodes = 0
Deterministic time = 4523.50 ticks  (668.56 ticks/sec)

CPLEX> Incumbent solution written to file 'C:\Users\llavin\Desktop\test919\logs\tmp5t1u6oak.cplex.sol'.
CPLEX> Exporting results... 
